91
0 49 54 14 75 8 56 35 84 90 
1 11 41 26 25 18 6 44 53 38 
57 17 27 61 3 70 52 67 30 22 
79 24 39 23 86 15 85 12 58 66 
82 46 72 19 48 5 64 51 43 28 
87 59 33 80 55 65 31 4 63 40 
29 73 68 89 50 83 47 7 9 16 
34 13 20 36 37 21 45 2 74 62 
76 77 69 32 88 81 71 78 60 10 
42 
